
Gurobi 10.0.1 (linux64, C++) logging started Mon May  8 21:17:32 2023

Set parameter LogFile to value "2.log"
Gurobi Optimizer version 10.0.1 build v10.0.1rc0 (linux64)

CPU model: Intel(R) Core(TM) i5-6200U CPU @ 2.30GHz, instruction set [SSE2|AVX|AVX2]
Thread count: 2 physical cores, 4 logical processors, using up to 4 threads

Optimize a model with 25 rows, 66 columns and 126 nonzeros
Model fingerprint: 0xb5745d6f
Variable types: 0 continuous, 66 integer (66 binary)
Coefficient statistics:
  Matrix range     [1e+00, 1e+00]
  Objective range  [1e+00, 1e+00]
  Bounds range     [1e+00, 1e+00]
  RHS range        [1e+00, 3e+00]
Found heuristic solution: objective 0.0000000

Explored 0 nodes (0 simplex iterations) in 0.00 seconds (0.00 work units)
Thread count was 1 (of 4 available processors)

Solution count 1: 0 

Optimal solution found (tolerance 1.00e-04)
Best objective 0.000000000000e+00, best bound 0.000000000000e+00, gap 0.0000%

Gurobi 10.0.1 (linux64, C++) logging started Mon May  8 21:22:16 2023

Set parameter LogFile to value "2.log"

Gurobi 10.0.1 (linux64, C++) logging started Mon May  8 21:22:26 2023

Set parameter LogFile to value "2.log"

Gurobi 10.0.1 (linux64, C++) logging started Mon May  8 21:24:30 2023

Set parameter LogFile to value "2.log"
